p cnf 100 1210
-99 -97 0
-100 -98 0
-99 -85 0
-100 -86 0
-99 -81 0
-100 -82 0
-99 -77 0
-100 -78 0
-99 -73 0
-100 -74 0
-99 -65 0
-100 -66 0
-99 -63 0
-100 -64 0
-99 -51 0
-100 -52 0
-99 -47 0
-100 -48 0
-99 -45 0
-100 -46 0
-99 -41 0
-100 -42 0
-99 -35 0
-100 -36 0
-99 -33 0
-100 -34 0
-99 -31 0
-100 -32 0
-99 -27 0
-100 -28 0
-99 -23 0
-100 -24 0
-99 -17 0
-100 -18 0
-99 -5 0
-100 -6 0
-97 -95 0
-98 -96 0
-97 -93 0
-98 -94 0
-97 -91 0
-98 -92 0
-97 -89 0
-98 -90 0
-97 -83 0
-98 -84 0
-97 -73 0
-98 -74 0
-97 -71 0
-98 -72 0
-97 -67 0
-98 -68 0
-97 -65 0
-98 -66 0
-97 -61 0
-98 -62 0
-97 -59 0
-98 -60 0
-97 -53 0
-98 -54 0
-97 -47 0
-98 -48 0
-97 -41 0
-98 -42 0
-97 -39 0
-98 -40 0
-97 -27 0
-98 -28 0
-97 -23 0
-98 -24 0
-97 -15 0
-98 -16 0
-97 -13 0
-98 -14 0
-97 -11 0
-98 -12 0
-97 -5 0
-98 -6 0
-95 -91 0
-96 -92 0
-95 -89 0
-96 -90 0
-95 -87 0
-96 -88 0
-95 -81 0
-96 -82 0
-95 -79 0
-96 -80 0
-95 -77 0
-96 -78 0
-95 -75 0
-96 -76 0
-95 -71 0
-96 -72 0
-95 -67 0
-96 -68 0
-95 -65 0
-96 -66 0
-95 -61 0
-96 -62 0
-95 -59 0
-96 -60 0
-95 -57 0
-96 -58 0
-95 -53 0
-96 -54 0
-95 -49 0
-96 -50 0
-95 -39 0
-96 -40 0
-95 -35 0
-96 -36 0
-95 -33 0
-96 -34 0
-95 -31 0
-96 -32 0
-95 -25 0
-96 -26 0
-95 -15 0
-96 -16 0
-95 -13 0
-96 -14 0
-95 -11 0
-96 -12 0
-95 -9 0
-96 -10 0
-95 -7 0
-96 -8 0
-95 -1 0
-96 -2 0
-93 -91 0
-94 -92 0
-93 -89 0
-94 -90 0
-93 -79 0
-94 -80 0
-93 -77 0
-94 -78 0
-93 -69 0
-94 -70 0
-93 -67 0
-94 -68 0
-93 -61 0
-94 -62 0
-93 -59 0
-94 -60 0
-93 -57 0
-94 -58 0
-93 -53 0
-94 -54 0
-93 -39 0
-94 -40 0
-93 -27 0
-94 -28 0
-93 -19 0
-94 -20 0
-93 -15 0
-94 -16 0
-93 -13 0
-94 -14 0
-93 -11 0
-94 -12 0
-93 -5 0
-94 -6 0
-91 -89 0
-92 -90 0
-91 -87 0
-92 -88 0
-91 -81 0
-92 -82 0
-91 -79 0
-92 -80 0
-91 -75 0
-92 -76 0
-91 -73 0
-92 -74 0
-91 -71 0
-92 -72 0
-91 -69 0
-92 -70 0
-91 -67 0
-92 -68 0
-91 -61 0
-92 -62 0
-91 -59 0
-92 -60 0
-91 -57 0
-92 -58 0
-91 -53 0
-92 -54 0
-91 -49 0
-92 -50 0
-91 -39 0
-92 -40 0
-91 -33 0
-92 -34 0
-91 -27 0
-92 -28 0
-91 -25 0
-92 -26 0
-91 -21 0
-92 -22 0
-91 -19 0
-92 -20 0
-91 -17 0
-92 -18 0
-91 -15 0
-92 -16 0
-91 -13 0
-92 -14 0
-91 -9 0
-92 -10 0
-89 -83 0
-90 -84 0
-89 -81 0
-90 -82 0
-89 -67 0
-90 -68 0
-89 -65 0
-90 -66 0
-89 -63 0
-90 -64 0
-89 -61 0
-90 -62 0
-89 -53 0
-90 -54 0
-89 -51 0
-90 -52 0
-89 -47 0
-90 -48 0
-89 -41 0
-90 -42 0
-89 -39 0
-90 -40 0
-89 -37 0
-90 -38 0
-89 -35 0
-90 -36 0
-89 -33 0
-90 -34 0
-89 -31 0
-90 -32 0
-89 -27 0
-90 -28 0
-89 -23 0
-90 -24 0
-89 -21 0
-90 -22 0
-89 -17 0
-90 -18 0
-89 -15 0
-90 -16 0
-89 -13 0
-90 -14 0
-89 -1 0
-90 -2 0
-87 -85 0
-88 -86 0
-87 -83 0
-88 -84 0
-87 -79 0
-88 -80 0
-87 -71 0
-88 -72 0
-87 -63 0
-88 -64 0
-87 -61 0
-88 -62 0
-87 -59 0
-88 -60 0
-87 -57 0
-88 -58 0
-87 -55 0
-88 -56 0
-87 -49 0
-88 -50 0
-87 -43 0
-88 -44 0
-87 -37 0
-88 -38 0
-87 -35 0
-88 -36 0
-87 -29 0
-88 -30 0
-87 -25 0
-88 -26 0
-87 -21 0
-88 -22 0
-87 -19 0
-88 -20 0
-87 -1 0
-88 -2 0
-85 -81 0
-86 -82 0
-85 -79 0
-86 -80 0
-85 -69 0
-86 -70 0
-85 -55 0
-86 -56 0
-85 -51 0
-86 -52 0
-85 -49 0
-86 -50 0
-85 -45 0
-86 -46 0
-85 -43 0
-86 -44 0
-85 -41 0
-86 -42 0
-85 -37 0
-86 -38 0
-85 -31 0
-86 -32 0
-85 -29 0
-86 -30 0
-85 -25 0
-86 -26 0
-85 -21 0
-86 -22 0
-85 -11 0
-86 -12 0
-85 -9 0
-86 -10 0
-85 -7 0
-86 -8 0
-85 -5 0
-86 -6 0
-83 -79 0
-84 -80 0
-83 -71 0
-84 -72 0
-83 -69 0
-84 -70 0
-83 -63 0
-84 -64 0
-83 -59 0
-84 -60 0
-83 -57 0
-84 -58 0
-83 -53 0
-84 -54 0
-83 -51 0
-84 -52 0
-83 -49 0
-84 -50 0
-83 -47 0
-84 -48 0
-83 -45 0
-84 -46 0
-83 -39 0
-84 -40 0
-83 -37 0
-84 -38 0
-83 -35 0
-84 -36 0
-83 -21 0
-84 -22 0
-83 -19 0
-84 -20 0
-83 -1 0
-84 -2 0
-81 -77 0
-82 -78 0
-81 -75 0
-82 -76 0
-81 -65 0
-82 -66 0
-81 -63 0
-82 -64 0
-81 -61 0
-82 -62 0
-81 -53 0
-82 -54 0
-81 -49 0
-82 -50 0
-81 -47 0
-82 -48 0
-81 -35 0
-82 -36 0
-81 -33 0
-82 -34 0
-81 -27 0
-82 -28 0
-81 -25 0
-82 -26 0
-81 -23 0
-82 -24 0
-81 -17 0
-82 -18 0
-81 -11 0
-82 -12 0
-81 -5 0
-82 -6 0
-79 -73 0
-80 -74 0
-79 -69 0
-80 -70 0
-79 -67 0
-80 -68 0
-79 -59 0
-80 -60 0
-79 -55 0
-80 -56 0
-79 -51 0
-80 -52 0
-79 -45 0
-80 -46 0
-79 -39 0
-80 -40 0
-79 -37 0
-80 -38 0
-79 -29 0
-80 -30 0
-79 -25 0
-80 -26 0
-79 -19 0
-80 -20 0
-79 -15 0
-80 -16 0
-79 -13 0
-80 -14 0
-79 -9 0
-80 -10 0
-79 -7 0
-80 -8 0
-79 -1 0
-80 -2 0
-77 -75 0
-78 -76 0
-77 -73 0
-78 -74 0
-77 -65 0
-78 -66 0
-77 -63 0
-78 -64 0
-77 -51 0
-78 -52 0
-77 -47 0
-78 -48 0
-77 -43 0
-78 -44 0
-77 -41 0
-78 -42 0
-77 -35 0
-78 -36 0
-77 -33 0
-78 -34 0
-77 -31 0
-78 -32 0
-77 -27 0
-78 -28 0
-77 -23 0
-78 -24 0
-77 -17 0
-78 -18 0
-77 -11 0
-78 -12 0
-77 -9 0
-78 -10 0
-77 -5 0
-78 -6 0
-75 -67 0
-76 -68 0
-75 -65 0
-76 -66 0
-75 -63 0
-76 -64 0
-75 -61 0
-76 -62 0
-75 -59 0
-76 -60 0
-75 -53 0
-76 -54 0
-75 -51 0
-76 -52 0
-75 -49 0
-76 -50 0
-75 -39 0
-76 -40 0
-75 -35 0
-76 -36 0
-75 -33 0
-76 -34 0
-75 -31 0
-76 -32 0
-75 -25 0
-76 -26 0
-75 -23 0
-76 -24 0
-75 -17 0
-76 -18 0
-75 -11 0
-76 -12 0
-75 -9 0
-76 -10 0
-75 -7 0
-76 -8 0
-75 -5 0
-76 -6 0
-73 -69 0
-74 -70 0
-73 -67 0
-74 -68 0
-73 -61 0
-74 -62 0
-73 -59 0
-74 -60 0
-73 -57 0
-74 -58 0
-73 -53 0
-74 -54 0
-73 -39 0
-74 -40 0
-73 -27 0
-74 -28 0
-73 -15 0
-74 -16 0
-73 -13 0
-74 -14 0
-73 -11 0
-74 -12 0
-73 -5 0
-74 -6 0
-71 -67 0
-72 -68 0
-71 -63 0
-72 -64 0
-71 -61 0
-72 -62 0
-71 -53 0
-72 -54 0
-71 -51 0
-72 -52 0
-71 -47 0
-72 -48 0
-71 -45 0
-72 -46 0
-71 -41 0
-72 -42 0
-71 -39 0
-72 -40 0
-71 -37 0
-72 -38 0
-71 -35 0
-72 -36 0
-71 -33 0
-72 -34 0
-71 -31 0
-72 -32 0
-71 -27 0
-72 -28 0
-71 -23 0
-72 -24 0
-71 -21 0
-72 -22 0
-71 -19 0
-72 -20 0
-71 -17 0
-72 -18 0
-71 -15 0
-72 -16 0
-71 -13 0
-72 -14 0
-71 -1 0
-72 -2 0
-69 -61 0
-70 -62 0
-69 -59 0
-70 -60 0
-69 -57 0
-70 -58 0
-69 -55 0
-70 -56 0
-69 -49 0
-70 -50 0
-69 -45 0
-70 -46 0
-69 -41 0
-70 -42 0
-69 -25 0
-70 -26 0
-69 -21 0
-70 -22 0
-69 -19 0
-70 -20 0
-69 -13 0
-70 -14 0
-69 -11 0
-70 -12 0
-69 -5 0
-70 -6 0
-69 -3 0
-70 -4 0
-67 -61 0
-68 -62 0
-67 -59 0
-68 -60 0
-67 -57 0
-68 -58 0
-67 -53 0
-68 -54 0
-67 -49 0
-68 -50 0
-67 -35 0
-68 -36 0
-67 -33 0
-68 -34 0
-67 -25 0
-68 -26 0
-67 -21 0
-68 -22 0
-67 -19 0
-68 -20 0
-67 -17 0
-68 -18 0
-67 -13 0
-68 -14 0
-65 -63 0
-66 -64 0
-65 -55 0
-66 -56 0
-65 -53 0
-66 -54 0
-65 -51 0
-66 -52 0
-65 -47 0
-66 -48 0
-65 -43 0
-66 -44 0
-65 -41 0
-66 -42 0
-65 -33 0
-66 -34 0
-65 -31 0
-66 -32 0
-65 -29 0
-66 -30 0
-65 -27 0
-66 -28 0
-65 -23 0
-66 -24 0
-65 -17 0
-66 -18 0
-65 -11 0
-66 -12 0
-63 -55 0
-64 -56 0
-63 -53 0
-64 -54 0
-63 -51 0
-64 -52 0
-63 -49 0
-64 -50 0
-63 -43 0
-64 -44 0
-63 -39 0
-64 -40 0
-63 -37 0
-64 -38 0
-63 -35 0
-64 -36 0
-63 -33 0
-64 -34 0
-63 -31 0
-64 -32 0
-63 -29 0
-64 -30 0
-63 -25 0
-64 -26 0
-63 -21 0
-64 -22 0
-63 -19 0
-64 -20 0
-63 -7 0
-64 -8 0
-63 -1 0
-64 -2 0
-61 -59 0
-62 -60 0
-61 -39 0
-62 -40 0
-61 -37 0
-62 -38 0
-61 -35 0
-62 -36 0
-61 -25 0
-62 -26 0
-61 -19 0
-62 -20 0
-61 -17 0
-62 -18 0
-61 -15 0
-62 -16 0
-61 -13 0
-62 -14 0
-61 -9 0
-62 -10 0
-61 -7 0
-62 -8 0
-59 -57 0
-60 -58 0
-59 -53 0
-60 -54 0
-59 -49 0
-60 -50 0
-59 -39 0
-60 -40 0
-59 -37 0
-60 -38 0
-59 -33 0
-60 -34 0
-59 -25 0
-60 -26 0
-59 -21 0
-60 -22 0
-59 -19 0
-60 -20 0
-59 -17 0
-60 -18 0
-59 -15 0
-60 -16 0
-59 -13 0
-60 -14 0
-59 -9 0
-60 -10 0
-59 -3 0
-60 -4 0
-57 -45 0
-58 -46 0
-57 -41 0
-58 -42 0
-57 -39 0
-58 -40 0
-57 -37 0
-58 -38 0
-57 -25 0
-58 -26 0
-57 -19 0
-58 -20 0
-57 -15 0
-58 -16 0
-57 -13 0
-58 -14 0
-57 -3 0
-58 -4 0
-57 -1 0
-58 -2 0
-55 -51 0
-56 -52 0
-55 -49 0
-56 -50 0
-55 -45 0
-56 -46 0
-55 -41 0
-56 -42 0
-55 -37 0
-56 -38 0
-55 -35 0
-56 -36 0
-55 -31 0
-56 -32 0
-55 -25 0
-56 -26 0
-55 -23 0
-56 -24 0
-55 -21 0
-56 -22 0
-55 -19 0
-56 -20 0
-55 -11 0
-56 -12 0
-55 -9 0
-56 -10 0
-55 -7 0
-56 -8 0
-55 -3 0
-56 -4 0
-55 -1 0
-56 -2 0
-53 -51 0
-54 -52 0
-53 -47 0
-54 -48 0
-53 -41 0
-54 -42 0
-53 -39 0
-54 -40 0
-53 -37 0
-54 -38 0
-53 -35 0
-54 -36 0
-53 -31 0
-54 -32 0
-53 -27 0
-54 -28 0
-53 -23 0
-54 -24 0
-53 -17 0
-54 -18 0
-53 -15 0
-54 -16 0
-53 -13 0
-54 -14 0
-53 -1 0
-54 -2 0
-51 -49 0
-52 -50 0
-51 -47 0
-52 -48 0
-51 -45 0
-52 -46 0
-51 -43 0
-52 -44 0
-51 -37 0
-52 -38 0
-51 -35 0
-52 -36 0
-51 -33 0
-52 -34 0
-51 -29 0
-52 -30 0
-51 -25 0
-52 -26 0
-51 -23 0
-52 -24 0
-51 -21 0
-52 -22 0
-51 -19 0
-52 -20 0
-51 -17 0
-52 -18 0
-51 -3 0
-52 -4 0
-51 -1 0
-52 -2 0
-49 -43 0
-50 -44 0
-49 -39 0
-50 -40 0
-49 -37 0
-50 -38 0
-49 -29 0
-50 -30 0
-49 -25 0
-50 -26 0
-49 -19 0
-50 -20 0
-49 -17 0
-50 -18 0
-49 -15 0
-50 -16 0
-49 -13 0
-50 -14 0
-49 -9 0
-50 -10 0
-49 -7 0
-50 -8 0
-49 -1 0
-50 -2 0
-47 -45 0
-48 -46 0
-47 -43 0
-48 -44 0
-47 -41 0
-48 -42 0
-47 -39 0
-48 -40 0
-47 -31 0
-48 -32 0
-47 -27 0
-48 -28 0
-47 -15 0
-48 -16 0
-47 -13 0
-48 -14 0
-47 -5 0
-48 -6 0
-45 -43 0
-46 -44 0
-45 -41 0
-46 -42 0
-45 -29 0
-46 -30 0
-45 -27 0
-46 -28 0
-45 -23 0
-46 -24 0
-45 -21 0
-46 -22 0
-45 -19 0
-46 -20 0
-45 -3 0
-46 -4 0
-45 -1 0
-46 -2 0
-43 -41 0
-44 -42 0
-43 -37 0
-44 -38 0
-43 -35 0
-44 -36 0
-43 -33 0
-44 -34 0
-43 -31 0
-44 -32 0
-43 -25 0
-44 -26 0
-43 -23 0
-44 -24 0
-43 -21 0
-44 -22 0
-43 -17 0
-44 -18 0
-43 -9 0
-44 -10 0
-43 -7 0
-44 -8 0
-43 -3 0
-44 -4 0
-43 -1 0
-44 -2 0
-41 -23 0
-42 -24 0
-41 -19 0
-42 -20 0
-41 -3 0
-42 -4 0
-41 -1 0
-42 -2 0
-39 -35 0
-40 -36 0
-39 -33 0
-40 -34 0
-39 -27 0
-40 -28 0
-39 -25 0
-40 -26 0
-39 -17 0
-40 -18 0
-39 -13 0
-40 -14 0
-39 -1 0
-40 -2 0
-37 -35 0
-38 -36 0
-37 -31 0
-38 -32 0
-37 -29 0
-38 -30 0
-37 -25 0
-38 -26 0
-37 -23 0
-38 -24 0
-37 -21 0
-38 -22 0
-37 -9 0
-38 -10 0
-37 -7 0
-38 -8 0
-35 -33 0
-36 -34 0
-35 -31 0
-36 -32 0
-35 -29 0
-36 -30 0
-35 -23 0
-36 -24 0
-35 -21 0
-36 -22 0
-35 -19 0
-36 -20 0
-35 -17 0
-36 -18 0
-35 -13 0
-36 -14 0
-35 -1 0
-36 -2 0
-33 -31 0
-34 -32 0
-33 -23 0
-34 -24 0
-33 -17 0
-34 -18 0
-33 -15 0
-34 -16 0
-33 -13 0
-34 -14 0
-33 -11 0
-34 -12 0
-33 -9 0
-34 -10 0
-33 -1 0
-34 -2 0
-31 -29 0
-32 -30 0
-31 -27 0
-32 -28 0
-31 -23 0
-32 -24 0
-31 -17 0
-32 -18 0
-31 -5 0
-32 -6 0
-31 -1 0
-32 -2 0
-29 -25 0
-30 -26 0
-29 -23 0
-30 -24 0
-29 -21 0
-30 -22 0
-29 -19 0
-30 -20 0
-29 -11 0
-30 -12 0
-29 -9 0
-30 -10 0
-29 -7 0
-30 -8 0
-29 -3 0
-30 -4 0
-29 -1 0
-30 -2 0
-27 -23 0
-28 -24 0
-27 -15 0
-28 -16 0
-27 -13 0
-28 -14 0
-27 -11 0
-28 -12 0
-27 -5 0
-28 -6 0
-25 -21 0
-26 -22 0
-25 -19 0
-26 -20 0
-25 -17 0
-26 -18 0
-25 -15 0
-26 -16 0
-25 -11 0
-26 -12 0
-25 -9 0
-26 -10 0
-25 -7 0
-26 -8 0
-25 -1 0
-26 -2 0
-23 -5 0
-24 -6 0
-23 -1 0
-24 -2 0
-21 -19 0
-22 -20 0
-21 -9 0
-22 -10 0
-21 -7 0
-22 -8 0
-21 -1 0
-22 -2 0
-19 -15 0
-20 -16 0
-19 -9 0
-20 -10 0
-19 -7 0
-20 -8 0
-19 -3 0
-20 -4 0
-17 -15 0
-18 -16 0
-17 -13 0
-18 -14 0
-17 -11 0
-18 -12 0
-17 -9 0
-18 -10 0
-17 -5 0
-18 -6 0
-17 -1 0
-18 -2 0
-15 -13 0
-16 -14 0
-15 -11 0
-16 -12 0
-15 -5 0
-16 -6 0
-15 -3 0
-16 -4 0
-13 -5 0
-14 -6 0
-11 -9 0
-12 -10 0
-11 -7 0
-12 -8 0
-11 -5 0
-12 -6 0
-11 -3 0
-12 -4 0
-9 -5 0
-10 -6 0
-9 -3 0
-10 -4 0
-7 -5 0
-8 -6 0
-7 -3 0
-8 -4 0
-5 -3 0
-6 -4 0
99 100 0
-99 -100 0
97 98 0
-97 -98 0
95 96 0
-95 -96 0
93 94 0
-93 -94 0
91 92 0
-91 -92 0
89 90 0
-89 -90 0
87 88 0
-87 -88 0
85 86 0
-85 -86 0
83 84 0
-83 -84 0
81 82 0
-81 -82 0
79 80 0
-79 -80 0
77 78 0
-77 -78 0
75 76 0
-75 -76 0
73 74 0
-73 -74 0
71 72 0
-71 -72 0
69 70 0
-69 -70 0
67 68 0
-67 -68 0
65 66 0
-65 -66 0
63 64 0
-63 -64 0
61 62 0
-61 -62 0
59 60 0
-59 -60 0
57 58 0
-57 -58 0
55 56 0
-55 -56 0
53 54 0
-53 -54 0
51 52 0
-51 -52 0
49 50 0
-49 -50 0
47 48 0
-47 -48 0
45 46 0
-45 -46 0
43 44 0
-43 -44 0
41 42 0
-41 -42 0
39 40 0
-39 -40 0
37 38 0
-37 -38 0
35 36 0
-35 -36 0
33 34 0
-33 -34 0
31 32 0
-31 -32 0
29 30 0
-29 -30 0
27 28 0
-27 -28 0
25 26 0
-25 -26 0
23 24 0
-23 -24 0
21 22 0
-21 -22 0
19 20 0
-19 -20 0
17 18 0
-17 -18 0
15 16 0
-15 -16 0
13 14 0
-13 -14 0
11 12 0
-11 -12 0
9 10 0
-9 -10 0
7 8 0
-7 -8 0
5 6 0
-5 -6 0
3 4 0
-3 -4 0
1 2 0
-1 -2 0
